c nIsolatedPIs 0
c maxPI 32
p cnf 179 442
c gate 33 -2 -18 0
-2 -33 0
-18 -33 0
2 18 33 0
c gate 34 1 17 0
1 -34 0
17 -34 0
-1 -17 34 0
c gate 35 -33 34 0
-33 -35 0
34 -35 0
33 -34 35 0
c gate 36 3 19 0
3 -36 0
19 -36 0
-3 -19 36 0
c gate 37 2 18 0
2 -37 0
18 -37 0
-2 -18 37 0
c gate 38 -36 -37 0
-36 -38 0
-37 -38 0
36 37 38 0
c gate 39 -35 38 0
-35 -39 0
38 -39 0
35 -38 39 0
c gate 40 -4 -20 0
-4 -40 0
-20 -40 0
4 20 40 0
c gate 41 -3 -19 0
-3 -41 0
-19 -41 0
3 19 41 0
c gate 42 -40 -41 0
-40 -42 0
-41 -42 0
40 41 42 0
c gate 43 -39 42 0
-39 -43 0
42 -43 0
39 -42 43 0
c gate 44 4 20 0
4 -44 0
20 -44 0
-4 -20 44 0
c gate 45 5 21 0
5 -45 0
21 -45 0
-5 -21 45 0
c gate 46 -44 -45 0
-44 -46 0
-45 -46 0
44 45 46 0
c gate 47 -43 46 0
-43 -47 0
46 -47 0
43 -46 47 0
c gate 48 -5 -21 0
-5 -48 0
-21 -48 0
5 21 48 0
c gate 49 -6 -22 0
-6 -49 0
-22 -49 0
6 22 49 0
c gate 50 -48 -49 0
-48 -50 0
-49 -50 0
48 49 50 0
c gate 51 -47 50 0
-47 -51 0
50 -51 0
47 -50 51 0
c gate 52 6 22 0
6 -52 0
22 -52 0
-6 -22 52 0
c gate 53 7 -23 0
7 -53 0
-23 -53 0
-7 23 53 0
c gate 54 -7 23 0
-7 -54 0
23 -54 0
7 -23 54 0
c gate 55 -53 -54 0
-53 -55 0
-54 -55 0
53 54 55 0
c gate 56 -52 -55 0
-52 -56 0
-55 -56 0
52 55 56 0
c gate 57 -51 56 0
-51 -57 0
56 -57 0
51 -56 57 0
c gate 58 8 24 0
8 -58 0
24 -58 0
-8 -24 58 0
c gate 59 -8 -24 0
-8 -59 0
-24 -59 0
8 24 59 0
c gate 60 -58 -59 0
-58 -60 0
-59 -60 0
58 59 60 0
c gate 61 57 60 0
57 -61 0
60 -61 0
-57 -60 61 0
c gate 62 11 27 0
11 -62 0
27 -62 0
-11 -27 62 0
c gate 63 -7 -23 0
-7 -63 0
-23 -63 0
7 23 63 0
c gate 64 -58 63 0
-58 -64 0
63 -64 0
58 -63 64 0
c gate 65 -9 -25 0
-9 -65 0
-25 -65 0
9 25 65 0
c gate 66 -59 -65 0
-59 -66 0
-65 -66 0
59 65 66 0
c gate 67 -64 66 0
-64 -67 0
66 -67 0
64 -66 67 0
c gate 68 9 25 0
9 -68 0
25 -68 0
-9 -25 68 0
c gate 69 10 26 0
10 -69 0
26 -69 0
-10 -26 69 0
c gate 70 -68 -69 0
-68 -70 0
-69 -70 0
68 69 70 0
c gate 71 -67 70 0
-67 -71 0
70 -71 0
67 -70 71 0
c gate 72 -11 -27 0
-11 -72 0
-27 -72 0
11 27 72 0
c gate 73 -10 -26 0
-10 -73 0
-26 -73 0
10 26 73 0
c gate 74 -72 -73 0
-72 -74 0
-73 -74 0
72 73 74 0
c gate 75 -71 74 0
-71 -75 0
74 -75 0
71 -74 75 0
c gate 76 -62 -75 0
-62 -76 0
-75 -76 0
62 75 76 0
c gate 77 -12 -28 0
-12 -77 0
-28 -77 0
12 28 77 0
c gate 78 12 28 0
12 -78 0
28 -78 0
-12 -28 78 0
c gate 79 -77 -78 0
-77 -79 0
-78 -79 0
77 78 79 0
c gate 80 -61 67 0
-61 -80 0
67 -80 0
61 -67 80 0
c gate 81 -68 -80 0
-68 -81 0
-80 -81 0
68 80 81 0
c gate 82 -73 -81 0
-73 -82 0
-81 -82 0
73 81 82 0
c gate 83 -62 -69 0
-62 -83 0
-69 -83 0
62 69 83 0
c gate 84 -82 83 0
-82 -84 0
83 -84 0
82 -83 84 0
c gate 85 -72 -84 0
-72 -85 0
-84 -85 0
72 84 85 0
c gate 86 -79 85 0
-79 -86 0
85 -86 0
79 -85 86 0
c gate 87 76 -86 0
76 -87 0
-86 -87 0
-76 86 87 0
c gate 88 79 -85 0
79 -88 0
-85 -88 0
-79 85 88 0
c gate 89 -76 -88 0
-76 -89 0
-88 -89 0
76 88 89 0
c gate 90 -87 -89 0
-87 -90 0
-89 -90 0
87 89 90 0
c gate 91 61 90 0
61 -91 0
90 -91 0
-61 -90 91 0
c gate 92 79 85 0
79 -92 0
85 -92 0
-79 -85 92 0
c gate 93 14 -30 0
14 -93 0
-30 -93 0
-14 30 93 0
c gate 94 -14 30 0
-14 -94 0
30 -94 0
14 -30 94 0
c gate 95 -93 -94 0
-93 -95 0
-94 -95 0
93 94 95 0
c gate 96 -77 -95 0
-77 -96 0
-95 -96 0
77 95 96 0
c gate 97 16 -32 0
16 -97 0
-32 -97 0
-16 32 97 0
c gate 98 -16 32 0
-16 -98 0
32 -98 0
16 -32 98 0
c gate 99 -97 -98 0
-97 -99 0
-98 -99 0
97 98 99 0
c gate 100 15 -31 0
15 -100 0
-31 -100 0
-15 31 100 0
c gate 101 -15 31 0
-15 -101 0
31 -101 0
15 -31 101 0
c gate 102 -100 -101 0
-100 -102 0
-101 -102 0
100 101 102 0
c gate 103 -13 -29 0
-13 -103 0
-29 -103 0
13 29 103 0
c gate 104 13 29 0
13 -104 0
29 -104 0
-13 -29 104 0
c gate 105 -103 -104 0
-103 -105 0
-104 -105 0
103 104 105 0
c gate 106 -102 105 0
-102 -106 0
105 -106 0
102 -105 106 0
c gate 107 -99 106 0
-99 -107 0
106 -107 0
99 -106 107 0
c gate 108 96 107 0
96 -108 0
107 -108 0
-96 -107 108 0
c gate 109 92 -108 0
92 -109 0
-108 -109 0
-92 108 109 0
c gate 110 -91 -109 0
-91 -110 0
-109 -110 0
91 109 110 0
c gate 111 -62 -72 0
-62 -111 0
-72 -111 0
62 72 111 0
c gate 112 10 -26 0
10 -112 0
-26 -112 0
-10 26 112 0
c gate 113 8 -24 0
8 -113 0
-24 -113 0
-8 24 113 0
c gate 114 -65 -68 0
-65 -114 0
-68 -114 0
65 68 114 0
c gate 115 -113 -114 0
-113 -115 0
-114 -115 0
113 114 115 0
c gate 116 -10 26 0
-10 -116 0
26 -116 0
10 -26 116 0
c gate 117 -9 25 0
-9 -117 0
25 -117 0
9 -25 117 0
c gate 118 -116 -117 0
-116 -118 0
-117 -118 0
116 117 118 0
c gate 119 -115 118 0
-115 -119 0
118 -119 0
115 -118 119 0
c gate 120 -112 -119 0
-112 -120 0
-119 -120 0
112 119 120 0
c gate 121 -2 18 0
-2 -121 0
18 -121 0
2 -18 121 0
c gate 122 -1 17 0
-1 -122 0
17 -122 0
1 -17 122 0
c gate 123 -121 -122 0
-121 -123 0
-122 -123 0
121 122 123 0
c gate 124 2 -18 0
2 -124 0
-18 -124 0
-2 18 124 0
c gate 125 3 -19 0
3 -125 0
-19 -125 0
-3 19 125 0
c gate 126 -124 -125 0
-124 -126 0
-125 -126 0
124 125 126 0
c gate 127 -123 126 0
-123 -127 0
126 -127 0
123 -126 127 0
c gate 128 -4 20 0
-4 -128 0
20 -128 0
4 -20 128 0
c gate 129 -3 19 0
-3 -129 0
19 -129 0
3 -19 129 0
c gate 130 -128 -129 0
-128 -130 0
-129 -130 0
128 129 130 0
c gate 131 -127 130 0
-127 -131 0
130 -131 0
127 -130 131 0
c gate 132 5 -21 0
5 -132 0
-21 -132 0
-5 21 132 0
c gate 133 4 -20 0
4 -133 0
-20 -133 0
-4 20 133 0
c gate 134 -132 -133 0
-132 -134 0
-133 -134 0
132 133 134 0
c gate 135 -131 134 0
-131 -135 0
134 -135 0
131 -134 135 0
c gate 136 -49 -52 0
-49 -136 0
-52 -136 0
49 52 136 0
c gate 137 -5 21 0
-5 -137 0
21 -137 0
5 -21 137 0
c gate 138 -136 -137 0
-136 -138 0
-137 -138 0
136 137 138 0
c gate 139 -135 138 0
-135 -139 0
138 -139 0
135 -138 139 0
c gate 140 -54 139 0
-54 -140 0
139 -140 0
54 -139 140 0
c gate 141 6 -22 0
6 -141 0
-22 -141 0
-6 22 141 0
c gate 142 -54 141 0
-54 -142 0
141 -142 0
54 -141 142 0
c gate 143 -53 -142 0
-53 -143 0
-142 -143 0
53 142 143 0
c gate 144 -140 143 0
-140 -144 0
143 -144 0
140 -143 144 0
c gate 145 -60 -144 0
-60 -145 0
-144 -145 0
60 144 145 0
c gate 146 118 145 0
118 -146 0
145 -146 0
-118 -145 146 0
c gate 147 120 -146 0
120 -147 0
-146 -147 0
-120 146 147 0
c gate 148 -111 147 0
-111 -148 0
147 -148 0
111 -147 148 0
c gate 149 60 143 0
60 -149 0
143 -149 0
-60 -143 149 0
c gate 150 -144 149 0
-144 -150 0
149 -150 0
144 -149 150 0
c gate 151 -55 139 0
-55 -151 0
139 -151 0
55 -139 151 0
c gate 152 -78 108 0
-78 -152 0
108 -152 0
78 -108 152 0
c gate 153 85 152 0
85 -153 0
152 -153 0
-85 -152 153 0
c gate 154 -139 -153 0
-139 -154 0
-153 -154 0
139 153 154 0
c gate 155 -110 154 0
-110 -155 0
154 -155 0
110 -154 155 0
c gate 156 -151 -155 0
-151 -156 0
-155 -156 0
151 155 156 0
c gate 157 -150 156 0
-150 -157 0
156 -157 0
150 -156 157 0
c gate 158 -145 -157 0
-145 -158 0
-157 -158 0
145 157 158 0
c gate 159 -112 -116 0
-112 -159 0
-116 -159 0
112 116 159 0
c gate 160 -114 159 0
-114 -160 0
159 -160 0
114 -159 160 0
c gate 161 145 -160 0
145 -161 0
-160 -161 0
-145 160 161 0
c gate 162 -158 -161 0
-158 -162 0
-161 -162 0
158 161 162 0
c gate 163 111 -147 0
111 -163 0
-147 -163 0
-111 147 163 0
c gate 164 -148 -163 0
-148 -164 0
-163 -164 0
148 163 164 0
c gate 165 120 -164 0
120 -165 0
-164 -165 0
-120 164 165 0
c gate 166 162 -165 0
162 -166 0
-165 -166 0
-162 165 166 0
c gate 167 -148 -166 0
-148 -167 0
-166 -167 0
148 166 167 0
c gate 168 -79 95 0
-79 -168 0
95 -168 0
79 -95 168 0
c gate 169 102 -105 0
102 -169 0
-105 -169 0
-102 105 169 0
c gate 170 99 169 0
99 -170 0
169 -170 0
-99 -169 170 0
c gate 171 168 170 0
168 -171 0
170 -171 0
-168 -170 171 0
c gate 172 148 171 0
148 -172 0
171 -172 0
-148 -171 172 0
c gate 173 -167 -172 0
-167 -173 0
-172 -173 0
167 172 173 0
c gate 174 -110 173 0
-110 -174 0
173 -174 0
110 -173 174 0
c gate 175 57 -90 0
57 -175 0
-90 -175 0
-57 90 175 0
c gate 176 -92 -175 0
-92 -176 0
-175 -176 0
92 175 176 0
c gate 177 -109 -176 0
-109 -177 0
-176 -177 0
109 176 177 0
c gate 178 -173 177 0
-173 -178 0
177 -178 0
173 -177 178 0
c gate 179 -174 -178 0
-174 -179 0
-178 -179 0
174 178 179 0
c PO
-179 0
